p cnf 23 9
a 1 0
e 2 3 0
a 4 5 0
e 6 0
a 7 8 9 0
e 10 0
a 11 0
e 12 13 0
a 14 0
e 15 16 17 18 0
a 19 0
e 20 0
a 21 22 0
e 23 0
21 -3 -19 0
-21 -1 7 20 16 0
-4 -23 -7 -16 -19 0
4 6 -8 0
5 -23 0
8 -14 -2 -19 -1 0
9 22 0
21 -6 0
-12 -17 -9 18 0
